
(set-logic ALL) 

(declare-datatype MyList ((Nil) (Cons (head Real) (tail MyList)) )) 
(declare-fun l0 () MyList) 
(declare-fun l1 () MyList) 
(declare-fun l2 () MyList) 
(declare-fun l3 () MyList) 
(declare-fun i0 () Real) 
(declare-fun i1 () Real) 
(assert (and (= l3 Nil) (= l1 Nil) (is-Nil l1)) )
(assert (= l1 l1) )
(assert (not (is-Cons Nil)) )
(assert (is-Nil l1) )
(assert (is-Cons l3) )
(assert (or (is-Cons Nil) (= l0 Nil) (is-Nil Nil) (= l2 l2)) )
(assert (is-Cons Nil) )
(assert (and (= l3 Nil) (is-Nil Nil) (= l0 Nil)) )
(check-sat)
